c 
p cnf 105 177
-7 -11 2 0
-15 9 21 0
-15 9 -21 0
11 1 22 0
-22 13 10 0
4 5 23 0
-23 -1 24 0
-24 17 -2 0
-11 -13 1 0
-5 -15 7 0
10 6 25 0
-25 5 -19 0
-9 3 14 0
12 -15 26 0
12 -15 -26 0
5 9 27 0
-27 -3 28 0
-28 -16 -8 0
-16 29 30 0
-16 29 -30 0
-16 -29 30 0
-16 -29 -30 0
13 10 31 0
-31 15 -18 0
5 15 32 0
-32 -6 33 0
-33 1 -2 0
7 2 34 0
-34 -16 14 0
-20 9 35 0
-35 5 11 0
-2 5 36 0
-36 -3 37 0
-37 -18 -13 0
-3 8 38 0
-38 -10 5 0
11 -1 39 0
11 -1 -39 0
-12 40 41 0
-12 40 -41 0
-12 -40 41 0
-12 -40 -41 0
12 -8 19 0
-20 -4 42 0
-42 14 43 0
-43 -6 -17 0
7 2 44 0
-44 18 45 0
-45 20 -16 0
-3 6 46 0
-46 -8 47 0
-47 -4 1 0
-15 17 -20 0
16 9 48 0
16 9 -48 0
7 -19 49 0
-49 -15 -14 0
14 5 50 0
-50 16 -1 0
-11 -17 51 0
-11 -17 -51 0
-11 10 52 0
-52 -17 53 0
-53 9 -20 0
9 -5 54 0
-54 16 -10 0
4 9 -14 0
-3 4 55 0
-55 -16 56 0
-56 -6 14 0
-4 -9 16 0
8 -5 -6 0
-4 6 57 0
-57 20 19 0
11 58 59 0
11 58 -59 0
11 -58 59 0
11 -58 -59 0
19 60 61 0
19 60 -61 0
19 -60 61 0
19 -60 -61 0
-3 62 63 0
-3 62 -63 0
-3 -62 63 0
-3 -62 -63 0
-6 10 8 0
-17 64 65 0
-17 64 -65 0
-17 -64 65 0
-17 -64 -65 0
16 66 67 0
16 66 -67 0
16 -66 67 0
16 -66 -67 0
-11 14 -18 0
-3 68 69 0
-3 68 -69 0
-3 -68 69 0
-3 -68 -69 0
-7 70 71 0
-7 70 -71 0
-7 -70 71 0
-7 -70 -71 0
15 10 72 0
-72 -4 -17 0
-12 -20 73 0
-73 14 -9 0
3 74 75 0
3 74 -75 0
3 -74 75 0
3 -74 -75 0
5 20 76 0
-76 -16 77 0
-77 -15 -8 0
-4 -20 -18 0
20 -19 78 0
20 -19 -78 0
-11 -15 12 0
-14 -4 7 0
16 -4 79 0
16 -4 -79 0
-2 7 80 0
-80 -16 8 0
-11 3 20 0
1 4 81 0
-81 -10 -17 0
-4 -15 82 0
-4 -15 -82 0
-11 2 83 0
-83 -5 13 0
12 14 84 0
-84 8 19 0
18 -10 85 0
-85 16 86 0
-86 14 15 0
19 -16 1 0
-2 -8 87 0
-87 3 88 0
-88 -16 4 0
-11 19 -8 0
13 -17 89 0
-89 -1 90 0
-90 -7 -9 0
-8 -15 91 0
-8 -15 -91 0
-11 10 92 0
-11 10 -92 0
-8 -3 -15 0
-20 19 93 0
-93 1 11 0
-17 14 94 0
-94 20 11 0
-7 -8 18 0
-5 -7 95 0
-95 -20 16 0
11 -14 96 0
11 -14 -96 0
-3 -14 97 0
-3 -14 -97 0
7 -1 -6 0
-18 14 -5 0
-8 -15 98 0
-98 10 -11 0
-10 -8 99 0
-10 -8 -99 0
11 100 101 0
11 100 -101 0
11 -100 101 0
11 -100 -101 0
-12 102 103 0
-12 102 -103 0
-12 -102 103 0
-12 -102 -103 0
13 4 104 0
-104 -7 105 0
-105 -18 11 0
